
































































































19 28 50 66 21 
76 56 32 7 
61 0 37 49 
38 16 30 1 27 
36 18 26 74 
24 5 43 64 44 
39 68 23 6 
75 60 70 53 34 
54 35 62 15 
31 12 17 65 40 
4 45 9 33 
69 57 63 71 59 
47 13 46 67 52 
14 48 73 29 
51 72 58 25 
42 10 41 2 
55 20 11 22 
3 8 
